NAME PortOpt_n20_m8_inst_4
ROWS
 N  OBJ
 E  budget  
 L  return  
 L  uncertain_risk
 L  fixed_risk
COLUMNS
    asset[0]  budget    1
    asset[0]  return    -4.1349629313153873e+00
    asset[1]  budget    1
    asset[1]  return    -1.0074125329362389e+00
    asset[2]  budget    1
    asset[2]  return    -2.8325267361082629e+00
    asset[3]  budget    1
    asset[3]  return    -1.1629071916015634e+00
    asset[4]  budget    1
    asset[4]  return    -4.8786848967067211e+00
    asset[5]  budget    1
    asset[5]  return    -2.0990727467607018e+00
    asset[6]  budget    1
    asset[6]  return    -3.4939321587327159e+00
    asset[7]  budget    1
    asset[7]  return    -2.9796457029130599e+00
    asset[8]  budget    1
    asset[8]  return    -3.6639001039794907e+00
    asset[9]  budget    1
    asset[9]  return    -4.4911813649444818e+00
    asset[10]  budget    1
    asset[10]  return    -2.3257864676256021e+00
    asset[11]  budget    1
    asset[11]  return    -1.9955948644505279e+00
    asset[12]  budget    1
    asset[12]  return    -4.6499286397368307e+00
    asset[13]  budget    1
    asset[13]  return    -1.3962182937166048e+00
    asset[14]  budget    1
    asset[14]  return    -4.8813732011699145e+00
    asset[15]  budget    1
    asset[15]  return    -1.5369747271993803e+00
    asset[16]  budget    1
    asset[16]  return    -4.9453536433538883e+00
    asset[17]  budget    1
    asset[17]  return    -1.1101490516893575e+00
    asset[18]  budget    1
    asset[18]  return    -1.0964371638820081e+00
    asset[19]  budget    1
    asset[19]  return    -1.8844069222809881e+00
    return_var  OBJ       -1
    return_var  return    1
    uncertain_risk_var  OBJ       1
    uncertain_risk_var  uncertain_risk  -1
    fixed_risk_var  OBJ       1
    fixed_risk_var  fixed_risk  -1
RHS
    RHS1      budget    1
BOUNDS
 FR BND1      asset[0]
 FR BND1      asset[1]
 FR BND1      asset[2]
 FR BND1      asset[3]
 FR BND1      asset[4]
 FR BND1      asset[5]
 FR BND1      asset[6]
 FR BND1      asset[7]
 FR BND1      asset[8]
 FR BND1      asset[9]
 FR BND1      asset[10]
 FR BND1      asset[11]
 FR BND1      asset[12]
 FR BND1      asset[13]
 FR BND1      asset[14]
 FR BND1      asset[15]
 FR BND1      asset[16]
 FR BND1      asset[17]
 FR BND1      asset[18]
 FR BND1      asset[19]
 FR BND1      return_var
 FR BND1      uncertain_risk_var
 FR BND1      fixed_risk_var
QCMATRIX   uncertain_risk
    asset[0]  asset[0]  1.5542023301674476e-01
    asset[0]  asset[1]  -2.5326995292041722e-02
    asset[1]  asset[0]  -2.5326995292041722e-02
    asset[0]  asset[2]  4.0010432711185984e-02
    asset[2]  asset[0]  4.0010432711185984e-02
    asset[0]  asset[3]  5.6075364499337879e-02
    asset[3]  asset[0]  5.6075364499337879e-02
    asset[0]  asset[4]  -4.0662907464007608e-03
    asset[4]  asset[0]  -4.0662907464007608e-03
    asset[0]  asset[5]  -3.8436555860714122e-02
    asset[5]  asset[0]  -3.8436555860714122e-02
    asset[0]  asset[6]  3.6374071288388009e-02
    asset[6]  asset[0]  3.6374071288388009e-02
    asset[0]  asset[7]  1.7458653387271844e-02
    asset[7]  asset[0]  1.7458653387271844e-02
    asset[0]  asset[8]  1.5519188302594016e-02
    asset[8]  asset[0]  1.5519188302594016e-02
    asset[0]  asset[9]  6.4970556519015663e-02
    asset[9]  asset[0]  6.4970556519015663e-02
    asset[0]  asset[10]  -3.2438911176771598e-02
    asset[10]  asset[0]  -3.2438911176771598e-02
    asset[0]  asset[11]  3.4538486908028028e-02
    asset[11]  asset[0]  3.4538486908028028e-02
    asset[0]  asset[12]  -6.5029965717095066e-03
    asset[12]  asset[0]  -6.5029965717095066e-03
    asset[0]  asset[13]  3.7014171179030465e-03
    asset[13]  asset[0]  3.7014171179030465e-03
    asset[0]  asset[14]  -1.5756246785189498e-02
    asset[14]  asset[0]  -1.5756246785189498e-02
    asset[0]  asset[15]  3.5310092969082990e-03
    asset[15]  asset[0]  3.5310092969082990e-03
    asset[0]  asset[16]  -3.8202489758786692e-02
    asset[16]  asset[0]  -3.8202489758786692e-02
    asset[0]  asset[17]  -3.6287488849117269e-02
    asset[17]  asset[0]  -3.6287488849117269e-02
    asset[0]  asset[18]  1.0548613334021814e-02
    asset[18]  asset[0]  1.0548613334021814e-02
    asset[0]  asset[19]  2.5887461356443639e-02
    asset[19]  asset[0]  2.5887461356443639e-02
    asset[1]  asset[1]  6.4396095793937569e-02
    asset[1]  asset[2]  8.3522544454187921e-03
    asset[2]  asset[1]  8.3522544454187921e-03
    asset[1]  asset[3]  -4.5105756729324667e-02
    asset[3]  asset[1]  -4.5105756729324667e-02
    asset[1]  asset[4]  2.5470547554250836e-02
    asset[4]  asset[1]  2.5470547554250836e-02
    asset[1]  asset[5]  -1.0093414306607830e-03
    asset[5]  asset[1]  -1.0093414306607830e-03
    asset[1]  asset[6]  1.0294903220533828e-02
    asset[6]  asset[1]  1.0294903220533828e-02
    asset[1]  asset[7]  -1.4941297177211439e-02
    asset[7]  asset[1]  -1.4941297177211439e-02
    asset[1]  asset[8]  -1.9606140007350538e-03
    asset[8]  asset[1]  -1.9606140007350538e-03
    asset[1]  asset[9]  1.9027454149994794e-02
    asset[9]  asset[1]  1.9027454149994794e-02
    asset[1]  asset[10]  2.8393661554224570e-02
    asset[10]  asset[1]  2.8393661554224570e-02
    asset[1]  asset[11]  -3.7554432087837932e-04
    asset[11]  asset[1]  -3.7554432087837932e-04
    asset[1]  asset[12]  1.7486894524346038e-02
    asset[12]  asset[1]  1.7486894524346038e-02
    asset[1]  asset[13]  1.2582449631876895e-02
    asset[13]  asset[1]  1.2582449631876895e-02
    asset[1]  asset[14]  -4.2267981031608379e-02
    asset[14]  asset[1]  -4.2267981031608379e-02
    asset[1]  asset[15]  -4.4411096522135707e-02
    asset[15]  asset[1]  -4.4411096522135707e-02
    asset[1]  asset[16]  3.5244494787569997e-02
    asset[16]  asset[1]  3.5244494787569997e-02
    asset[1]  asset[17]  2.4765472473730888e-02
    asset[17]  asset[1]  2.4765472473730888e-02
    asset[1]  asset[18]  -1.8653646293741985e-02
    asset[18]  asset[1]  -1.8653646293741985e-02
    asset[1]  asset[19]  4.5434740475509869e-02
    asset[19]  asset[1]  4.5434740475509869e-02
    asset[2]  asset[2]  3.5662915704833147e-02
    asset[2]  asset[3]  1.4774664766915080e-02
    asset[3]  asset[2]  1.4774664766915080e-02
    asset[2]  asset[4]  1.5104705996127241e-02
    asset[4]  asset[2]  1.5104705996127241e-02
    asset[2]  asset[5]  -1.3950664576432310e-02
    asset[5]  asset[2]  -1.3950664576432310e-02
    asset[2]  asset[6]  7.0215648821188598e-03
    asset[6]  asset[2]  7.0215648821188598e-03
    asset[2]  asset[7]  -2.1465134057324252e-03
    asset[7]  asset[2]  -2.1465134057324252e-03
    asset[2]  asset[8]  1.0751106313502613e-02
    asset[8]  asset[2]  1.0751106313502613e-02
    asset[2]  asset[9]  2.0690742540024336e-02
    asset[9]  asset[2]  2.0690742540024336e-02
    asset[2]  asset[10]  -1.7203894998950337e-03
    asset[10]  asset[2]  -1.7203894998950337e-03
    asset[2]  asset[11]  -1.6684757823616240e-03
    asset[11]  asset[2]  -1.6684757823616240e-03
    asset[2]  asset[12]  -7.9073987380107076e-03
    asset[12]  asset[2]  -7.9073987380107076e-03
    asset[2]  asset[13]  5.4110457720414444e-03
    asset[13]  asset[2]  5.4110457720414444e-03
    asset[2]  asset[14]  -1.9996864567122189e-02
    asset[14]  asset[2]  -1.9996864567122189e-02
    asset[2]  asset[15]  4.2229127193972992e-03
    asset[15]  asset[2]  4.2229127193972992e-03
    asset[2]  asset[16]  -1.2266646582725872e-03
    asset[16]  asset[2]  -1.2266646582725872e-03
    asset[2]  asset[17]  1.3964991511843640e-02
    asset[17]  asset[2]  1.3964991511843640e-02
    asset[2]  asset[18]  1.7727137467197203e-03
    asset[18]  asset[2]  1.7727137467197203e-03
    asset[2]  asset[19]  8.7538485227943511e-03
    asset[19]  asset[2]  8.7538485227943511e-03
    asset[3]  asset[3]  6.4711004635221170e-02
    asset[3]  asset[4]  -2.4462447184097111e-02
    asset[4]  asset[3]  -2.4462447184097111e-02
    asset[3]  asset[5]  -1.4431321705271227e-02
    asset[5]  asset[3]  -1.4431321705271227e-02
    asset[3]  asset[6]  3.0341736608047540e-03
    asset[6]  asset[3]  3.0341736608047540e-03
    asset[3]  asset[7]  1.1429509247236291e-02
    asset[7]  asset[3]  1.1429509247236291e-02
    asset[3]  asset[8]  6.0229650414532990e-03
    asset[8]  asset[3]  6.0229650414532990e-03
    asset[3]  asset[9]  6.3439036566954373e-03
    asset[9]  asset[3]  6.3439036566954373e-03
    asset[3]  asset[10]  -3.4116231715945765e-02
    asset[10]  asset[3]  -3.4116231715945765e-02
    asset[3]  asset[11]  9.3586120836721201e-03
    asset[11]  asset[3]  9.3586120836721201e-03
    asset[3]  asset[12]  -1.2114827090765772e-02
    asset[12]  asset[3]  -1.2114827090765772e-02
    asset[3]  asset[13]  -1.0630995705506170e-02
    asset[13]  asset[3]  -1.0630995705506170e-02
    asset[3]  asset[14]  3.4949066403919052e-02
    asset[14]  asset[3]  3.4949066403919052e-02
    asset[3]  asset[15]  3.4133678936746938e-02
    asset[15]  asset[3]  3.4133678936746938e-02
    asset[3]  asset[16]  -3.4921634094031186e-02
    asset[16]  asset[3]  -3.4921634094031186e-02
    asset[3]  asset[17]  -2.9703255840338928e-02
    asset[17]  asset[3]  -2.9703255840338928e-02
    asset[3]  asset[18]  2.1056363285671273e-02
    asset[18]  asset[3]  2.1056363285671273e-02
    asset[3]  asset[19]  -2.7894906494940898e-02
    asset[19]  asset[3]  -2.7894906494940898e-02
    asset[4]  asset[4]  3.0454494465883289e-02
    asset[4]  asset[5]  2.8634001843621712e-04
    asset[5]  asset[4]  2.8634001843621712e-04
    asset[4]  asset[6]  -2.1983635474134783e-03
    asset[6]  asset[4]  -2.1983635474134783e-03
    asset[4]  asset[7]  -9.8473394837352464e-03
    asset[7]  asset[4]  -9.8473394837352464e-03
    asset[4]  asset[8]  7.3373393702588058e-05
    asset[8]  asset[4]  7.3373393702588058e-05
    asset[4]  asset[9]  1.1977910792408494e-02
    asset[9]  asset[4]  1.1977910792408494e-02
    asset[4]  asset[10]  1.8404471610293224e-02
    asset[10]  asset[4]  1.8404471610293224e-02
    asset[4]  asset[11]  -1.6581348520512552e-02
    asset[11]  asset[4]  -1.6581348520512552e-02
    asset[4]  asset[12]  3.3280925758107744e-04
    asset[12]  asset[4]  3.3280925758107744e-04
    asset[4]  asset[13]  1.0379146972836486e-02
    asset[13]  asset[4]  1.0379146972836486e-02
    asset[4]  asset[14]  -3.0989621692293967e-02
    asset[14]  asset[4]  -3.0989621692293967e-02
    asset[4]  asset[15]  -1.0681190900770608e-02
    asset[15]  asset[4]  -1.0681190900770608e-02
    asset[4]  asset[16]  1.3919456144325290e-02
    asset[16]  asset[4]  1.3919456144325290e-02
    asset[4]  asset[17]  2.6534756181664201e-02
    asset[17]  asset[4]  2.6534756181664201e-02
    asset[4]  asset[18]  -7.7246440230758218e-03
    asset[18]  asset[4]  -7.7246440230758218e-03
    asset[4]  asset[19]  2.2396101734434973e-02
    asset[19]  asset[4]  2.2396101734434973e-02
    asset[5]  asset[5]  1.3365312666057363e-02
    asset[5]  asset[6]  -9.2296794552723521e-03
    asset[6]  asset[5]  -9.2296794552723521e-03
    asset[5]  asset[7]  -4.2252271603268037e-03
    asset[7]  asset[5]  -4.2252271603268037e-03
    asset[5]  asset[8]  -7.9437788881058791e-03
    asset[8]  asset[5]  -7.9437788881058791e-03
    asset[5]  asset[9]  -1.9510902890043806e-02
    asset[9]  asset[5]  -1.9510902890043806e-02
    asset[5]  asset[10]  5.5736565056112766e-03
    asset[10]  asset[5]  5.5736565056112766e-03
    asset[5]  asset[11]  -1.1835136791943096e-02
    asset[11]  asset[5]  -1.1835136791943096e-02
    asset[5]  asset[12]  1.3451451787499456e-04
    asset[12]  asset[5]  1.3451451787499456e-04
    asset[5]  asset[13]  -6.5634582048013676e-04
    asset[13]  asset[5]  -6.5634582048013676e-04
    asset[5]  asset[14]  9.4796521551731364e-03
    asset[14]  asset[5]  9.4796521551731364e-03
    asset[5]  asset[15]  3.8465811058284649e-03
    asset[15]  asset[5]  3.8465811058284649e-03
    asset[5]  asset[16]  5.2569734862145060e-03
    asset[16]  asset[5]  5.2569734862145060e-03
    asset[5]  asset[17]  5.3490624290260368e-03
    asset[17]  asset[5]  5.3490624290260368e-03
    asset[5]  asset[18]  -1.0286390465321163e-03
    asset[18]  asset[5]  -1.0286390465321163e-03
    asset[5]  asset[19]  -9.6815334932701096e-03
    asset[19]  asset[5]  -9.6815334932701096e-03
    asset[6]  asset[6]  2.0789948360596441e-02
    asset[6]  asset[7]  2.2211929105760602e-03
    asset[7]  asset[6]  2.2211929105760602e-03
    asset[6]  asset[8]  -1.1605213358673277e-04
    asset[8]  asset[6]  -1.1605213358673277e-04
    asset[6]  asset[9]  2.3529914138326769e-02
    asset[9]  asset[6]  2.3529914138326769e-02
    asset[6]  asset[10]  -4.4074247182838309e-03
    asset[10]  asset[6]  -4.4074247182838309e-03
    asset[6]  asset[11]  1.6286127120989216e-02
    asset[11]  asset[6]  1.6286127120989216e-02
    asset[6]  asset[12]  8.7509372750237523e-03
    asset[12]  asset[6]  8.7509372750237523e-03
    asset[6]  asset[13]  3.8000443280624611e-03
    asset[13]  asset[6]  3.8000443280624611e-03
    asset[6]  asset[14]  -8.0146596301757661e-03
    asset[14]  asset[6]  -8.0146596301757661e-03
    asset[6]  asset[15]  -1.6362841063458006e-02
    asset[15]  asset[6]  -1.6362841063458006e-02
    asset[6]  asset[16]  -1.4821465119446340e-03
    asset[16]  asset[6]  -1.4821465119446340e-03
    asset[6]  asset[17]  -1.4064161659384419e-02
    asset[17]  asset[6]  -1.4064161659384419e-02
    asset[6]  asset[18]  -1.1779885476437928e-03
    asset[18]  asset[6]  -1.1779885476437928e-03
    asset[6]  asset[19]  2.5254148917940353e-02
    asset[19]  asset[6]  2.5254148917940353e-02
    asset[7]  asset[7]  7.7889761784355003e-03
    asset[7]  asset[8]  5.4037206378117738e-03
    asset[8]  asset[7]  5.4037206378117738e-03
    asset[7]  asset[9]  8.8515044261692458e-04
    asset[9]  asset[7]  8.8515044261692458e-04
    asset[7]  asset[10]  -7.3335299591119705e-03
    asset[10]  asset[7]  -7.3335299591119705e-03
    asset[7]  asset[11]  1.0120964836909420e-02
    asset[11]  asset[7]  1.0120964836909420e-02
    asset[7]  asset[12]  -2.2694994360477122e-03
    asset[12]  asset[7]  -2.2694994360477122e-03
    asset[7]  asset[13]  -3.4237539275204848e-03
    asset[13]  asset[7]  -3.4237539275204848e-03
    asset[7]  asset[14]  5.4669642334723599e-03
    asset[14]  asset[7]  5.4669642334723599e-03
    asset[7]  asset[15]  5.2721372322424992e-03
    asset[15]  asset[7]  5.2721372322424992e-03
    asset[7]  asset[16]  -8.0427941990543726e-03
    asset[16]  asset[7]  -8.0427941990543726e-03
    asset[7]  asset[17]  -9.5982210062850008e-03
    asset[17]  asset[7]  -9.5982210062850008e-03
    asset[7]  asset[18]  2.8006557969530643e-03
    asset[18]  asset[7]  2.8006557969530643e-03
    asset[7]  asset[19]  -6.8880598517107143e-03
    asset[19]  asset[7]  -6.8880598517107143e-03
    asset[8]  asset[8]  1.3872537471667029e-02
    asset[8]  asset[9]  4.6379491941249962e-03
    asset[9]  asset[8]  4.6379491941249962e-03
    asset[8]  asset[10]  3.2009692637148632e-04
    asset[10]  asset[8]  3.2009692637148632e-04
    asset[8]  asset[11]  7.7544156935477468e-03
    asset[11]  asset[8]  7.7544156935477468e-03
    asset[8]  asset[12]  -4.6073155920008831e-03
    asset[12]  asset[8]  -4.6073155920008831e-03
    asset[8]  asset[13]  -1.7391156141465013e-04
    asset[13]  asset[8]  -1.7391156141465013e-04
    asset[8]  asset[14]  -1.0796864781350711e-02
    asset[14]  asset[8]  -1.0796864781350711e-02
    asset[8]  asset[15]  2.7504996358988518e-03
    asset[15]  asset[8]  2.7504996358988518e-03
    asset[8]  asset[16]  8.5348743533732153e-04
    asset[16]  asset[8]  8.5348743533732153e-04
    asset[8]  asset[17]  6.0409722041879057e-03
    asset[17]  asset[8]  6.0409722041879057e-03
    asset[8]  asset[18]  -8.2708193693205637e-04
    asset[18]  asset[8]  -8.2708193693205637e-04
    asset[8]  asset[19]  -5.4581793551374677e-03
    asset[19]  asset[8]  -5.4581793551374677e-03
    asset[9]  asset[9]  4.6934902484990382e-02
    asset[9]  asset[10]  -1.3447183646276054e-03
    asset[10]  asset[9]  -1.3447183646276054e-03
    asset[9]  asset[11]  1.4488320709591027e-02
    asset[11]  asset[9]  1.4488320709591027e-02
    asset[9]  asset[12]  1.0282544483469450e-02
    asset[12]  asset[9]  1.0282544483469450e-02
    asset[9]  asset[13]  8.8702015000258344e-03
    asset[13]  asset[9]  8.8702015000258344e-03
    asset[9]  asset[14]  -2.6138874446806550e-02
    asset[14]  asset[9]  -2.6138874446806550e-02
    asset[9]  asset[15]  -2.1938279427701667e-02
    asset[15]  asset[9]  -2.1938279427701667e-02
    asset[9]  asset[16]  -3.4086007249610585e-03
    asset[16]  asset[9]  -3.4086007249610585e-03
    asset[9]  asset[17]  -1.1379265126163246e-02
    asset[17]  asset[9]  -1.1379265126163246e-02
    asset[9]  asset[18]  -1.6479064264021607e-03
    asset[18]  asset[9]  -1.6479064264021607e-03
    asset[9]  asset[19]  4.1823726845096380e-02
    asset[19]  asset[9]  4.1823726845096380e-02
    asset[10]  asset[10]  2.2031306109635076e-02
    asset[10]  asset[11]  -8.4421176089795116e-03
    asset[11]  asset[10]  -8.4421176089795116e-03
    asset[10]  asset[12]  6.2016381501464150e-03
    asset[12]  asset[10]  6.2016381501464150e-03
    asset[10]  asset[13]  6.2909853199898721e-03
    asset[13]  asset[10]  6.2909853199898721e-03
    asset[10]  asset[14]  -2.3894084102687296e-02
    asset[14]  asset[10]  -2.3894084102687296e-02
    asset[10]  asset[15]  -1.8161990190531559e-02
    asset[15]  asset[10]  -1.8161990190531559e-02
    asset[10]  asset[16]  2.1872763263245817e-02
    asset[16]  asset[10]  2.1872763263245817e-02
    asset[10]  asset[17]  2.3277838840241930e-02
    asset[17]  asset[10]  2.3277838840241930e-02
    asset[10]  asset[18]  -1.1124388267050011e-02
    asset[18]  asset[10]  -1.1124388267050011e-02
    asset[10]  asset[19]  1.7198830329286229e-02
    asset[19]  asset[10]  1.7198830329286229e-02
    asset[11]  asset[11]  2.9144051068171160e-02
    asset[11]  asset[12]  5.6630179021361438e-03
    asset[12]  asset[11]  5.6630179021361438e-03
    asset[11]  asset[13]  -2.6796805879894707e-03
    asset[13]  asset[11]  -2.6796805879894707e-03
    asset[11]  asset[14]  -3.0253969475924503e-03
    asset[14]  asset[11]  -3.0253969475924503e-03
    asset[11]  asset[15]  -1.3537856645461383e-02
    asset[15]  asset[11]  -1.3537856645461383e-02
    asset[11]  asset[16]  -3.4121728918645906e-03
    asset[16]  asset[11]  -3.4121728918645906e-03
    asset[11]  asset[17]  -1.8616113397973970e-02
    asset[17]  asset[11]  -1.8616113397973970e-02
    asset[11]  asset[18]  -2.3244829924281441e-03
    asset[18]  asset[11]  -2.3244829924281441e-03
    asset[11]  asset[19]  8.9430269180460140e-03
    asset[19]  asset[11]  8.9430269180460140e-03
    asset[12]  asset[12]  1.4204861491059862e-02
    asset[12]  asset[13]  2.6934578940680017e-03
    asset[13]  asset[12]  2.6934578940680017e-03
    asset[12]  asset[14]  -3.9127269658976813e-03
    asset[14]  asset[12]  -3.9127269658976813e-03
    asset[12]  asset[15]  -1.9810603214047887e-02
    asset[15]  asset[12]  -1.9810603214047887e-02
    asset[12]  asset[16]  7.9449816155058757e-03
    asset[16]  asset[12]  7.9449816155058757e-03
    asset[12]  asset[17]  -7.4577322694019824e-03
    asset[17]  asset[12]  -7.4577322694019824e-03
    asset[12]  asset[18]  -3.2779886346785397e-03
    asset[18]  asset[12]  -3.2779886346785397e-03
    asset[12]  asset[19]  2.2720038199516901e-02
    asset[19]  asset[12]  2.2720038199516901e-02
    asset[13]  asset[13]  5.3469317280760735e-03
    asset[13]  asset[14]  -1.3020606284318871e-02
    asset[14]  asset[13]  -1.3020606284318871e-02
    asset[13]  asset[15]  -7.8434909808711532e-03
    asset[15]  asset[13]  -7.8434909808711532e-03
    asset[13]  asset[16]  5.5097514557517300e-03
    asset[16]  asset[13]  5.5097514557517300e-03
    asset[13]  asset[17]  5.7518545198215580e-03
    asset[17]  asset[13]  5.7518545198215580e-03
    asset[13]  asset[18]  -3.4894400948597172e-03
    asset[18]  asset[13]  -3.4894400948597172e-03
    asset[13]  asset[19]  1.2478468150842397e-02
    asset[19]  asset[13]  1.2478468150842397e-02
    asset[14]  asset[14]  5.4894938764531581e-02
    asset[14]  asset[15]  3.0058875136792583e-02
    asset[15]  asset[14]  3.0058875136792583e-02
    asset[14]  asset[16]  -2.3221894026961856e-02
    asset[16]  asset[14]  -2.3221894026961856e-02
    asset[14]  asset[17]  -2.9616523115967790e-02
    asset[17]  asset[14]  -2.9616523115967790e-02
    asset[14]  asset[18]  1.7501816262496212e-02
    asset[18]  asset[14]  1.7501816262496212e-02
    asset[14]  asset[19]  -3.6395893808397257e-02
    asset[19]  asset[14]  -3.6395893808397257e-02
    asset[15]  asset[15]  4.3441458289621135e-02
    asset[15]  asset[16]  -2.2712962051597597e-02
    asset[16]  asset[15]  -2.2712962051597597e-02
    asset[15]  asset[17]  -3.7122092778728850e-03
    asset[17]  asset[15]  -3.7122092778728850e-03
    asset[15]  asset[18]  1.5127443447460195e-02
    asset[18]  asset[15]  1.5127443447460195e-02
    asset[15]  asset[19]  -4.5577532805237658e-02
    asset[19]  asset[15]  -4.5577532805237658e-02
    asset[16]  asset[16]  2.6318142581376245e-02
    asset[16]  asset[17]  2.3298217455667486e-02
    asset[17]  asset[16]  2.3298217455667486e-02
    asset[16]  asset[18]  -1.2783686896612845e-02
    asset[18]  asset[16]  -1.2783686896612845e-02
    asset[16]  asset[19]  1.6974892720508256e-02
    asset[19]  asset[16]  1.6974892720508256e-02
    asset[17]  asset[17]  4.4090264616086963e-02
    asset[17]  asset[18]  -1.1023909017668355e-02
    asset[18]  asset[17]  -1.1023909017668355e-02
    asset[17]  asset[19]  1.4364902421631779e-03
    asset[19]  asset[17]  1.4364902421631779e-03
    asset[18]  asset[18]  9.3705603698155185e-03
    asset[18]  asset[19]  -1.1104127475391853e-02
    asset[19]  asset[18]  -1.1104127475391853e-02
    asset[19]  asset[19]  6.8003792892094156e-02
QCMATRIX   fixed_risk
    asset[0]  asset[0]  1.4621663749305933e-02
    asset[1]  asset[1]  6.3251148661930537e-03
    asset[2]  asset[2]  3.4993133343488129e-03
    asset[3]  asset[3]  6.4873630224450834e-03
    asset[4]  asset[4]  3.3637062625182404e-03
    asset[5]  asset[5]  1.4826018372211577e-03
    asset[6]  asset[6]  2.1311493689019959e-03
    asset[7]  asset[7]  7.6052224103114342e-04
    asset[8]  asset[8]  1.2775080978025466e-03
    asset[9]  asset[9]  4.9986010924161946e-03
    asset[10]  asset[10]  2.1691939695035580e-03
    asset[11]  asset[11]  2.5656858450256084e-03
    asset[12]  asset[12]  1.4657684716574111e-03
    asset[13]  asset[13]  5.4619680180294759e-04
    asset[14]  asset[14]  5.3631321518462964e-03
    asset[15]  asset[15]  4.5201133664198208e-03
    asset[16]  asset[16]  2.4422980700676655e-03
    asset[17]  asset[17]  4.1491086584267622e-03
    asset[18]  asset[18]  9.1720749686348890e-04
    asset[19]  asset[19]  6.0540259681567642e-03
ENDATA
